p cnf 78 72
1 2 3 4 0
1 2 -3 5 0
1 -2 3 6 0
1 -2 -3 7 0
-1 2 3 8 0
-1 2 -3 9 0
-1 -2 3 10 0
-1 -2 -3 11 0
12 13 14 1 2 3 15 0
12 13 14 1 2 -3 49 0
12 13 14 1 -2 3 17 0
12 13 14 1 -2 -3 16 0
12 13 14 -1 2 3 48 0
12 13 14 -1 2 -3 18 0
12 13 14 -1 -2 3 32 0
12 13 14 -1 -2 -3 27 0
12 13 -14 1 2 3 50 0
12 13 -14 1 2 -3 51 0
12 13 -14 1 -2 3 19 0
12 13 -14 1 -2 -3 52 0
12 13 -14 -1 2 3 20 0
12 13 -14 -1 2 -3 53 0
12 13 -14 -1 -2 3 30 0
12 13 -14 -1 -2 -3 71 0
12 -13 14 1 2 3 21 0
12 -13 14 1 2 -3 22 0
12 -13 14 1 -2 3 54 0
12 -13 14 1 -2 -3 55 0
12 -13 14 -1 2 3 56 0
12 -13 14 -1 2 -3 23 0
12 -13 14 -1 -2 3 24 0
12 -13 14 -1 -2 -3 45 0
12 -13 -14 1 2 3 46 0
12 -13 -14 1 2 -3 57 0
12 -13 -14 1 -2 3 47 0
12 -13 -14 1 -2 -3 67 0
12 -13 -14 -1 2 3 25 0
12 -13 -14 -1 2 -3 68 0
12 -13 -14 -1 -2 3 33 0
12 -13 -14 -1 -2 -3 60 0
-12 13 14 1 2 3 73 0
-12 13 14 1 2 -3 64 0
-12 13 14 1 -2 3 77 0
-12 13 14 1 -2 -3 38 0
-12 13 14 -1 2 3 78 0
-12 13 14 -1 2 -3 26 0
-12 13 14 -1 -2 3 42 0
-12 13 14 -1 -2 -3 72 0
-12 13 -14 1 2 3 75 0
-12 13 -14 1 2 -3 43 0
-12 13 -14 1 -2 3 34 0
-12 13 -14 1 -2 -3 39 0
-12 13 -14 -1 2 3 58 0
-12 13 -14 -1 2 -3 44 0
-12 13 -14 -1 -2 3 59 0
-12 13 -14 -1 -2 -3 70 0
-12 -13 14 1 2 3 29 0
-12 -13 14 1 2 -3 28 0
-12 -13 14 1 -2 3 76 0
-12 -13 14 1 -2 -3 61 0
-12 -13 14 -1 2 3 35 0
-12 -13 14 -1 2 -3 62 0
-12 -13 14 -1 -2 3 37 0
-12 -13 14 -1 -2 -3 40 0
-12 -13 -14 1 2 3 63 0
-12 -13 -14 1 2 -3 36 0
-12 -13 -14 1 -2 3 74 0
-12 -13 -14 1 -2 -3 65 0
-12 -13 -14 -1 2 3 31 0
-12 -13 -14 -1 2 -3 69 0
-12 -13 -14 -1 -2 3 41 0
-12 -13 -14 -1 -2 -3 66 0
